; benchmark generated from python API
(set-info :status unknown)
(declare-fun strlen_72_64 () (_ BitVec 64))
(declare-fun args_0_8 () (_ BitVec 8))
(declare-fun strlen_75_64 () (_ BitVec 64))
(declare-fun args_1_8 () (_ BitVec 8))
(declare-fun sigaction_oldact_171_1216 () (_ BitVec 1216))
(declare-fun sigaction_oldact_175_1216 () (_ BitVec 1216))
(declare-fun sigaction_oldact_185_1216 () (_ BitVec 1216))
(declare-fun sigaction_oldact_199_1216 () (_ BitVec 1216))
(declare-fun sigaction_oldact_228_1216 () (_ BitVec 1216))
(declare-fun sigaction_oldact_291_1216 () (_ BitVec 1216))
(declare-fun sigaction_oldact_399_1216 () (_ BitVec 1216))
(declare-fun sigaction_oldact_604_1216 () (_ BitVec 1216))
(declare-fun sigaction_oldact_989_1216 () (_ BitVec 1216))
(declare-fun sigaction_oldact_1876_1216 () (_ BitVec 1216))
(assert
 (let (($x351 (= (_ bv1 64) strlen_72_64)))
 (not $x351)))
(assert
 (let ((?x82 (bvadd (_ bv576460752303357824 64) strlen_72_64)))
 (let (($x69 (= (_ bv0 8) args_0_8)))
 (let ((?x46 (ite $x69 (_ bv576460752303357824 64) (_ bv576460752303357825 64))))
 (= ?x46 ?x82)))))
(assert
 (let (($x347 (= (_ bv0 8) args_1_8)))
 (let ((?x355 (ite $x347 (_ bv576460752303357826 64) (_ bv576460752303357827 64))))
 (let ((?x356 (bvsub ?x355 (_ bv576460752303357826 64))))
 (= ?x356 strlen_75_64)))))
(assert
 (let ((?x1831 ((_ extract 127 120) sigaction_oldact_171_1216)))
 (let ((?x2319 (bvand ?x1831 (_ bv4 8))))
 (= (_ bv0 8) ?x2319))))
(assert
 (let ((?x2264 ((_ extract 127 120) sigaction_oldact_175_1216)))
 (let ((?x2349 (bvand ?x2264 (_ bv4 8))))
 (and (distinct (_ bv0 8) ?x2349) true))))
(assert
 (let ((?x2741 ((_ extract 127 120) sigaction_oldact_185_1216)))
 (let ((?x2766 (bvand ?x2741 (_ bv4 8))))
 (= (_ bv0 8) ?x2766))))
(assert
 (let ((?x3551 ((_ extract 127 120) sigaction_oldact_199_1216)))
 (let ((?x3576 (bvand ?x3551 (_ bv4 8))))
 (and (distinct (_ bv0 8) ?x3576) true))))
(assert
 (let ((?x5514 ((_ extract 127 120) sigaction_oldact_228_1216)))
 (let ((?x5539 (bvand ?x5514 (_ bv4 8))))
 (and (distinct (_ bv0 8) ?x5539) true))))
(assert
 (let ((?x9640 ((_ extract 127 120) sigaction_oldact_291_1216)))
 (let ((?x9660 (bvand ?x9640 (_ bv4 8))))
 (= (_ bv0 8) ?x9660))))
(assert
 (let ((?x17033 ((_ extract 127 120) sigaction_oldact_399_1216)))
 (let ((?x17058 (bvand ?x17033 (_ bv4 8))))
 (= (_ bv0 8) ?x17058))))
(assert
 (let ((?x31815 ((_ extract 127 120) sigaction_oldact_604_1216)))
 (let ((?x31840 (bvand ?x31815 (_ bv4 8))))
 (= (_ bv0 8) ?x31840))))
(assert
 (let ((?x56574 ((_ extract 127 120) sigaction_oldact_989_1216)))
 (let ((?x56580 (bvand ?x56574 (_ bv4 8))))
 (and (distinct (_ bv0 8) ?x56580) true))))
(assert
 (let ((?x106817 ((_ extract 127 120) sigaction_oldact_1876_1216)))
 (let ((?x106835 (bvand ?x106817 (_ bv4 8))))
 (and (distinct (_ bv0 8) ?x106835) true))))
(minimize sigaction_oldact_175_1216)
(minimize strlen_72_64)
(minimize sigaction_oldact_291_1216)
(maximize args_1_8)
(minimize sigaction_oldact_1876_1216)
(maximize sigaction_oldact_175_1216)
(maximize sigaction_oldact_989_1216)
(maximize strlen_72_64)
(maximize sigaction_oldact_399_1216)
(maximize sigaction_oldact_185_1216)
(minimize sigaction_oldact_604_1216)
(check-sat)
(get-objectives)
